c
c Generated WCNF file
c
p wcnf 79 355 30342
30342 13 0
30342 -14 1 0
30342 -14 2 0
30342 14 -1 -2 0
30342 -15 1 0
30342 -15 3 0
30342 15 -1 -3 0
30342 -16 1 0
30342 -16 4 0
30342 16 -1 -4 0
30342 -17 1 0
30342 -17 5 0
30342 17 -1 -5 0
30342 -18 1 0
30342 -18 6 0
30342 18 -1 -6 0
30342 -19 1 0
30342 -19 7 0
30342 19 -1 -7 0
30342 -20 1 0
30342 -20 8 0
30342 20 -1 -8 0
30342 -21 1 0
30342 -21 9 0
30342 21 -1 -9 0
30342 -22 1 0
30342 -22 10 0
30342 22 -1 -10 0
30342 -23 1 0
30342 -23 11 0
30342 23 -1 -11 0
30342 -24 1 0
30342 -24 12 0
30342 24 -1 -12 0
30342 -25 2 0
30342 -25 3 0
30342 25 -2 -3 0
30342 -26 2 0
30342 -26 4 0
30342 26 -2 -4 0
30342 -27 2 0
30342 -27 5 0
30342 27 -2 -5 0
30342 -28 2 0
30342 -28 6 0
30342 28 -2 -6 0
30342 -29 2 0
30342 -29 7 0
30342 29 -2 -7 0
30342 -30 2 0
30342 -30 8 0
30342 30 -2 -8 0
30342 -31 2 0
30342 -31 9 0
30342 31 -2 -9 0
30342 -32 2 0
30342 -32 10 0
30342 32 -2 -10 0
30342 -33 2 0
30342 -33 11 0
30342 33 -2 -11 0
30342 -34 2 0
30342 -34 12 0
30342 34 -2 -12 0
30342 -35 3 0
30342 -35 4 0
30342 35 -3 -4 0
30342 -36 3 0
30342 -36 5 0
30342 36 -3 -5 0
30342 -37 3 0
30342 -37 6 0
30342 37 -3 -6 0
30342 -38 3 0
30342 -38 7 0
30342 38 -3 -7 0
30342 -39 3 0
30342 -39 8 0
30342 39 -3 -8 0
30342 -40 3 0
30342 -40 9 0
30342 40 -3 -9 0
30342 -41 3 0
30342 -41 10 0
30342 41 -3 -10 0
30342 -42 3 0
30342 -42 11 0
30342 42 -3 -11 0
30342 -43 3 0
30342 -43 12 0
30342 43 -3 -12 0
30342 -44 4 0
30342 -44 5 0
30342 44 -4 -5 0
30342 -45 4 0
30342 -45 6 0
30342 45 -4 -6 0
30342 -46 4 0
30342 -46 7 0
30342 46 -4 -7 0
30342 -47 4 0
30342 -47 8 0
30342 47 -4 -8 0
30342 -48 4 0
30342 -48 9 0
30342 48 -4 -9 0
30342 -49 4 0
30342 -49 10 0
30342 49 -4 -10 0
30342 -50 4 0
30342 -50 11 0
30342 50 -4 -11 0
30342 -51 4 0
30342 -51 12 0
30342 51 -4 -12 0
30342 -52 5 0
30342 -52 6 0
30342 52 -5 -6 0
30342 -53 5 0
30342 -53 7 0
30342 53 -5 -7 0
30342 -54 5 0
30342 -54 8 0
30342 54 -5 -8 0
30342 -55 5 0
30342 -55 9 0
30342 55 -5 -9 0
30342 -56 5 0
30342 -56 10 0
30342 56 -5 -10 0
30342 -57 5 0
30342 -57 11 0
30342 57 -5 -11 0
30342 -58 5 0
30342 -58 12 0
30342 58 -5 -12 0
30342 -59 6 0
30342 -59 7 0
30342 59 -6 -7 0
30342 -60 6 0
30342 -60 8 0
30342 60 -6 -8 0
30342 -61 6 0
30342 -61 9 0
30342 61 -6 -9 0
30342 -62 6 0
30342 -62 10 0
30342 62 -6 -10 0
30342 -63 6 0
30342 -63 11 0
30342 63 -6 -11 0
30342 -64 6 0
30342 -64 12 0
30342 64 -6 -12 0
30342 -65 7 0
30342 -65 8 0
30342 65 -7 -8 0
30342 -66 7 0
30342 -66 9 0
30342 66 -7 -9 0
30342 -67 7 0
30342 -67 10 0
30342 67 -7 -10 0
30342 -68 7 0
30342 -68 11 0
30342 68 -7 -11 0
30342 -69 7 0
30342 -69 12 0
30342 69 -7 -12 0
30342 -70 8 0
30342 -70 9 0
30342 70 -8 -9 0
30342 -71 8 0
30342 -71 10 0
30342 71 -8 -10 0
30342 -72 8 0
30342 -72 11 0
30342 72 -8 -11 0
30342 -73 8 0
30342 -73 12 0
30342 73 -8 -12 0
30342 -74 9 0
30342 -74 10 0
30342 74 -9 -10 0
30342 -75 9 0
30342 -75 11 0
30342 75 -9 -11 0
30342 -76 9 0
30342 -76 12 0
30342 76 -9 -12 0
30342 -77 10 0
30342 -77 11 0
30342 77 -10 -11 0
30342 -78 10 0
30342 -78 12 0
30342 78 -10 -12 0
30342 -79 11 0
30342 -79 12 0
30342 79 -11 -12 0
16017 1 0
30332 -1 0
16722 14 0
30332 -14 0
28512 15 0
30332 -15 0
24470 16 0
30332 -16 0
34022 17 0
30332 -17 0
26064 18 0
30332 -18 0
25778 19 0
30332 -19 0
30162 20 0
30332 -20 0
23864 21 0
30332 -21 0
26540 22 0
30332 -22 0
34988 23 0
30332 -23 0
33588 24 0
30332 -24 0
21589 2 0
30332 -2 0
37048 25 0
30332 -25 0
29598 26 0
30332 -26 0
31096 27 0
30332 -27 0
27198 28 0
30332 -28 0
27758 29 0
30332 -29 0
34676 30 0
30332 -30 0
29878 31 0
30332 -31 0
28850 32 0
30332 -32 0
32558 33 0
30332 -33 0
32330 34 0
30332 -34 0
19328 3 0
30332 -3 0
30224 35 0
30332 -35 0
30246 36 0
30332 -36 0
31646 37 0
30332 -37 0
33186 38 0
30332 -38 0
28212 39 0
30332 -39 0
26570 40 0
30332 -40 0
32746 41 0
30332 -41 0
28910 42 0
30332 -42 0
30850 43 0
30332 -43 0
31537 4 0
30332 -4 0
24324 44 0
30332 -44 0
34644 45 0
30332 -45 0
26812 46 0
30332 -46 0
29504 47 0
30332 -47 0
27860 48 0
30332 -48 0
30774 49 0
30332 -49 0
29156 50 0
30332 -50 0
29222 51 0
30332 -51 0
44551 5 0
30332 -5 0
27102 52 0
30332 -52 0
23880 53 0
30332 -53 0
30716 54 0
30332 -54 0
32494 55 0
30332 -55 0
27976 56 0
30332 -56 0
28580 57 0
30332 -57 0
27520 58 0
30332 -58 0
31628 6 0
30332 -6 0
27270 59 0
30332 -59 0
27722 60 0
30332 -60 0
31272 61 0
30332 -61 0
24612 62 0
30332 -62 0
34022 63 0
30332 -63 0
30924 64 0
30332 -64 0
40441 7 0
30332 -7 0
30702 65 0
30332 -65 0
29820 66 0
30332 -66 0
26474 67 0
30332 -67 0
31346 68 0
30332 -68 0
29370 69 0
30332 -69 0
26661 8 0
30332 -8 0
31456 70 0
30332 -70 0
27288 71 0
30332 -71 0
31034 72 0
30332 -72 0
28408 73 0
30332 -73 0
22032 9 0
30332 -9 0
33856 74 0
30332 -74 0
28250 75 0
30332 -75 0
32848 76 0
30332 -76 0
33703 10 0
30332 -10 0
33530 77 0
30332 -77 0
29370 78 0
30332 -78 0
28988 11 0
30332 -11 0
28778 79 0
30332 -79 0
32663 12 0
30332 -12 0
